100 2 100
27 36 20 31 37 42 70 72 91 4 90 89 70 83 52 34 20 63 24 30 40 62 7 69 82 44 50 6 78 77 24 5 65 44 88 54 38 58 78 29 62 68 18 85 4 22 71 76 38 95 58 30 58 65 99 92 62 50 98 92 79 74 97 96 18 85 2 56 95 80 37 58 8 43 4 82 14 32 20 62 91 3 72 8 2 64 70 4 14 14 35 89 11 31 59 48 33 68 44 65 
